(set-logic BV) (define-fun origCir ((n232 Bool) (n271 Bool) (n284 Bool) (i31 Bool)) Bool (and (not (and n284 (and n271 n232))) i31)) (synth-fun skel ((n232 Bool) (n271 Bool) (n284 Bool) (i31 Bool)) Bool) (declare-var n232 Bool) (declare-var n271 Bool) (declare-var n284 Bool) (declare-var i31 Bool) (constraint (= (origCir n232 n271 n284 i31) (skel n232 n271 n284 i31))) (check-synth)
